273
37
82
32
36
90
2228
50
0
32
14
277
132
26
0
38
56
25
0
800
35
19
70
71
37
38
0
70
134
2128
105
0
0
63
62
399
36
0
32
117
55
13
16
153
149
23
0
47
15
15
42
0
44
143
85
283
52
37
48
256
29
14
20
42
13
0
40
24
32
812
162
23
182
32
44
105
149
23
27
45
54
32
0
79
53
14
50
32
0
0
21
174
88
53
50
398
30
169
0
46
